
%FILE DATA:	Soccer Computational Problem for MiniZinc Models	%
%AUTHOR:	Jack Wall	%
%CONTACT:  	116397063@umail.ucc.ie			%
%LAST UPDATE:	02/14/2020, 08:50:15						%
%DESCRIPTION: 	32 games played with 24 games left				%


n=8; %number of teams

%Games to play
games=[|3,1|1,2|4,6|1,8|4,2|7,1|4,8|7,6|5,2|2,1|3,2|4,7|8,7|7,2|7,8|1,5|8,3|6,7|3,7|5,7|6,5|2,3|6,1|1,6|];

%Initial points
iPoints=[15,13,16,10,7,7,7,12];

%POSITION CONSTRAINTS
% [|teamID, operator, position|...]
% operators index:
%  1 for =  operator
%  2 for >  operator
%  3 for >= operator
%  4 for <  operator
%  5 for <= operator
positionConstraints=[|7,5,1|2,3,2|8,2,2|3,5,4|];